! b3lyp def2-svp d3 printmos printbasis pal8

*xyz 0 1

*