! b3lyp def2-svp d3 printmos printbasis pal8

%base "bodipy_sp"

*xyz 0 1
B            -0.0483787064940948             1.2625516410923137            -0.7322283742575600
N            -1.2708313488379748             0.5582019961006675            -0.1571814407628263
C            -2.5613900593761434             0.9454346211879804            -0.2109498992992624
C            -3.3555674647021001             0.0288101739603311             0.4308860125299053
C            -2.5048680778360781            -0.9547305838263506             0.8919369100142189
C            -1.2034864349070706            -0.6100881794956465             0.5165610654146860
C             0.0868684606231363            -1.2584877294225281             0.7229912332379299
C             1.2293207406420870            -0.7586417890559928             0.2781541732631703
N             1.2220999122511769             0.4704522367018314            -0.4391614104379937
C             2.4384335640252477             0.7561614690293581            -0.7687218447970237
C             3.3214834191539238            -0.2896170103460115            -0.2756129762269682
C             2.6157376712524942            -1.2241969409659943             0.3648930281446345
F            -0.1493192259744435             1.4367442247747229            -2.1713158420013592
F             0.0067500154290280             2.6178509417758966            -0.1629032332421591
H            -2.9455817889320111             1.8496620812177822            -0.6880261690135923
H            -4.4248177214833380             0.0635685548652697             0.5535251933750911
H            -2.7298753154187483            -1.8501563526668068             1.4452922088460454
H             0.1091068543214520            -2.1964781426074671             1.2681663129400600
H             2.8024882299732008             1.6246041357104928            -1.3248871689784394
H             4.4059180319609625            -0.3438736322559757            -0.3888810826425537
H             2.9559092443294164            -2.1277717157738705             0.8474633038939343
*

$new_job

! r2scan-3c opt pal8

%base "bodipy_opt"

*xyz 0 1
B            -0.0483787064940948             1.2625516410923137            -0.7322283742575600
N            -1.2708313488379748             0.5582019961006675            -0.1571814407628263
C            -2.5613900593761434             0.9454346211879804            -0.2109498992992624
C            -3.3555674647021001             0.0288101739603311             0.4308860125299053
C            -2.5048680778360781            -0.9547305838263506             0.8919369100142189
C            -1.2034864349070706            -0.6100881794956465             0.5165610654146860
C             0.0868684606231363            -1.2584877294225281             0.7229912332379299
C             1.2293207406420870            -0.7586417890559928             0.2781541732631703
N             1.2220999122511769             0.4704522367018314            -0.4391614104379937
C             2.4384335640252477             0.7561614690293581            -0.7687218447970237
C             3.3214834191539238            -0.2896170103460115            -0.2756129762269682
C             2.6157376712524942            -1.2241969409659943             0.3648930281446345
F            -0.1493192259744435             1.4367442247747229            -2.1713158420013592
F             0.0067500154290280             2.6178509417758966            -0.1629032332421591
H            -2.9455817889320111             1.8496620812177822            -0.6880261690135923
H            -4.4248177214833380             0.0635685548652697             0.5535251933750911
H            -2.7298753154187483            -1.8501563526668068             1.4452922088460454
H             0.1091068543214520            -2.1964781426074671             1.2681663129400600
H             2.8024882299732008             1.6246041357104928            -1.3248871689784394
H             4.4059180319609625            -0.3438736322559757            -0.3888810826425537
H             2.9559092443294164            -2.1277717157738705             0.8474633038939343
*

$new_job

! r2scan-3c freq pal8

%base "bodipy_freq"

*xyzfile 0 1 "bodipy_opt.xyz"

$new_job

! wb97x-d4 def2-svp pal8

%base "bodipy_tddft"

%tddft
    nroots 10
    tda false
end

*xyzfile 0 1 "bodipy_opt.xyz"
