! b3lyp def2-svp d3 printmos printbasis pal8

%base "hbi_sp"

*xyz 0 1
C            -1.6049049206155217            -1.0154640946999831             0.8360174069490329
C            -2.7732006767856903            -0.3088056643494247             0.7493955179053180
C            -2.8968476536041736             0.7301728805736739            -0.1555755237287310
C            -1.8604811120262390             1.0949255832848879            -1.0015829629070896
C            -0.6725057822707508             0.3694607631491532            -0.9066502257587640
C            -0.5408963002470687            -0.6750567949986247             0.0004079260488797
C             0.7172871374245907            -1.3837858403646439             0.0189069486410403
C             1.9125444033850671            -0.7944741453243634             0.0554607362105781
C             3.2366108504824789            -1.4048410815894308             0.0718568058836584
N             4.1498925794249573            -0.4844962556138544             0.1404153666415446
C             3.5717006678657599             0.8181330089434158             0.1773066069673951
O             4.1730662611433349             1.9256430188510374             0.2427367237776031
N             2.1465900609157140             0.6063469012246476             0.1239173038477178
O            -4.0815717715611717             1.4433483034452392            -0.2373678195809155
H            -1.4974122305365172            -1.8312463563550541             1.5452709616316631
H            -3.6183425725544778            -0.5517058581778774             1.3894125940748792
H            -1.9442308548375162             1.9047231769229258            -1.7182647456412856
H             0.1053175762645770             0.6720665400482415            -1.5834559968953956
H             0.7222004650094944            -2.4724038476991255            -0.0015390783805700
H             3.4580716231225508            -2.4605136208012612             0.0305901991472132
H             1.4926976188045205             1.4099713135430716             0.1468864987537940
H            -4.1955853688039246             2.4080020699873761             0.0758547564124719
*

$new_job

! r2scan-3c opt pal8

%base "hbi_opt"

*xyz 0 1
C            -1.6049049206155217            -1.0154640946999831             0.8360174069490329
C            -2.7732006767856903            -0.3088056643494247             0.7493955179053180
C            -2.8968476536041736             0.7301728805736739            -0.1555755237287310
C            -1.8604811120262390             1.0949255832848879            -1.0015829629070896
C            -0.6725057822707508             0.3694607631491532            -0.9066502257587640
C            -0.5408963002470687            -0.6750567949986247             0.0004079260488797
C             0.7172871374245907            -1.3837858403646439             0.0189069486410403
C             1.9125444033850671            -0.7944741453243634             0.0554607362105781
C             3.2366108504824789            -1.4048410815894308             0.0718568058836584
N             4.1498925794249573            -0.4844962556138544             0.1404153666415446
C             3.5717006678657599             0.8181330089434158             0.1773066069673951
O             4.1730662611433349             1.9256430188510374             0.2427367237776031
N             2.1465900609157140             0.6063469012246476             0.1239173038477178
O            -4.0815717715611717             1.4433483034452392            -0.2373678195809155
H            -1.4974122305365172            -1.8312463563550541             1.5452709616316631
H            -3.6183425725544778            -0.5517058581778774             1.3894125940748792
H            -1.9442308548375162             1.9047231769229258            -1.7182647456412856
H             0.1053175762645770             0.6720665400482415            -1.5834559968953956
H             0.7222004650094944            -2.4724038476991255            -0.0015390783805700
H             3.4580716231225508            -2.4605136208012612             0.0305901991472132
H             1.4926976188045205             1.4099713135430716             0.1468864987537940
H            -4.1955853688039246             2.4080020699873761             0.0758547564124719
*

$new_job

! r2scan-3c freq pal8

%base "hbi_freq"

*xyzfile 0 1 "hbi_opt.xyz"

$new_job

! wb97x-d4 def2-svp pal8

%base "hbi_tddft"

%tddft
    nroots 10
    tda false
end

*xyzfile 0 1 "hbi_opt.xyz"
