! b3lyp def2-svp d3 printmos printbasis pal8

%base "hina_sp"

*xyz 0 1
C             0.0181188166533183            -1.4325005263227151            -0.0608003953136745
C            -1.3653100189068150            -1.4893504764259149            -0.0925606001981018
N            -2.1259715759710462            -0.3599189129386426            -0.1104146602131276
C            -1.5861808232171912             0.8724358791056219            -0.0984349772413184
C            -0.2092683861047478             0.9554847893394508            -0.0668320263755875
C             0.5827180158365037            -0.1735682393703750            -0.0482554072130159
C             2.0430687878888549            -0.0707759598958056            -0.0147648219369779
O             2.7751586058281399            -1.0935646215945773             0.0023899833529351
O             0.3667359486850569             2.2200977395810058            -0.0540349608915319
H             0.5903561414659404            -2.3439218011260721            -0.0473611785341646
H            -1.8941063650433960            -2.4387789341198998            -0.1043515888535468
H            -2.2425113758080810             1.7286860716875940            -0.1138155182624448
H             2.5497688425096894             0.8819976644363279            -0.0034512650419078
H             0.4974233861837873             2.7436773276440172             0.8126874167224720
*

$new_job

! r2scan-3c opt pal8

%base "hina_opt"

*xyz 0 1
C             0.0181188166533183            -1.4325005263227151            -0.0608003953136745
C            -1.3653100189068150            -1.4893504764259149            -0.0925606001981018
N            -2.1259715759710462            -0.3599189129386426            -0.1104146602131276
C            -1.5861808232171912             0.8724358791056219            -0.0984349772413184
C            -0.2092683861047478             0.9554847893394508            -0.0668320263755875
C             0.5827180158365037            -0.1735682393703750            -0.0482554072130159
C             2.0430687878888549            -0.0707759598958056            -0.0147648219369779
O             2.7751586058281399            -1.0935646215945773             0.0023899833529351
O             0.3667359486850569             2.2200977395810058            -0.0540349608915319
H             0.5903561414659404            -2.3439218011260721            -0.0473611785341646
H            -1.8941063650433960            -2.4387789341198998            -0.1043515888535468
H            -2.2425113758080810             1.7286860716875940            -0.1138155182624448
H             2.5497688425096894             0.8819976644363279            -0.0034512650419078
H             0.4974233861837873             2.7436773276440172             0.8126874167224720
*

$new_job

! r2scan-3c freq pal8

%base "hina_freq"

*xyzfile 0 1 hina_opt.xyz

$new_job

! wb97x-d4 def2-svp pal8

%base "hina_tddft"

%tddft
    nroots 10
    tda false
end

*xyzfile 0 1 hina_opt.xyz
