! b3lyp def2-svp d3 printmos printbasis pal8

%base "bodipy_sp"

*xyz 0 1
B            -0.0483787064940948             1.2625516410923137            -0.7322283742575600
N            -1.2708313488379748             0.5582019961006675            -0.1571814407628263
C            -2.5613900593761434             0.9454346211879804            -0.2109498992992624
C            -3.3555674647021001             0.0288101739603311             0.4308860125299053
C            -2.5048680778360781            -0.9547305838263506             0.8919369100142189
C            -1.2034864349070706            -0.6100881794956465             0.5165610654146860
C             0.0868684606231363            -1.2584877294225281             0.7229912332379299
C             1.2293207406420870            -0.7586417890559928             0.2781541732631703
N             1.2220999122511769             0.4704522367018314            -0.4391614104379937
C             2.4384335640252477             0.7561614690293581            -0.7687218447970237
C             3.3214834191539238            -0.2896170103460115            -0.2756129762269682
C             2.6157376712524942            -1.2241969409659943             0.3648930281446345
F            -0.1493192259744435             1.4367442247747229            -2.1713158420013592
F             0.0067500154290280             2.6178509417758966            -0.1629032332421591
H            -2.9455817889320111             1.8496620812177822            -0.6880261690135923
H            -4.4248177214833380             0.0635685548652697             0.5535251933750911
H            -2.7298753154187483            -1.8501563526668068             1.4452922088460454
H             0.1091068543214520            -2.1964781426074671             1.2681663129400600
H             2.8024882299732008             1.6246041357104928            -1.3248871689784394
H             4.4059180319609625            -0.3438736322559757            -0.3888810826425537
H             2.9559092443294164            -2.1277717157738705             0.8474633038939343
*

$new_job

! r2scan-3c opt pal8

%base "bodipy_opt"

*xyz 0 1
B            -0.0483787064940948             1.2625516410923137            -0.7322283742575600
N            -1.2708313488379748             0.5582019961006675            -0.1571814407628263
C            -2.5613900593761434             0.9454346211879804            -0.2109498992992624
C            -3.3555674647021001             0.0288101739603311             0.4308860125299053
C            -2.5048680778360781            -0.9547305838263506             0.8919369100142189
C            -1.2034864349070706            -0.6100881794956465             0.5165610654146860
C             0.0868684606231363            -1.2584877294225281             0.7229912332379299
C             1.2293207406420870            -0.7586417890559928             0.2781541732631703
N             1.2220999122511769             0.4704522367018314            -0.4391614104379937
C             2.4384335640252477             0.7561614690293581            -0.7687218447970237
C             3.3214834191539238            -0.2896170103460115            -0.2756129762269682
C             2.6157376712524942            -1.2241969409659943             0.3648930281446345
F            -0.1493192259744435             1.4367442247747229            -2.1713158420013592
F             0.0067500154290280             2.6178509417758966            -0.1629032332421591
H            -2.9455817889320111             1.8496620812177822            -0.6880261690135923
H            -4.4248177214833380             0.0635685548652697             0.5535251933750911
H            -2.7298753154187483            -1.8501563526668068             1.4452922088460454
H             0.1091068543214520            -2.1964781426074671             1.2681663129400600
H             2.8024882299732008             1.6246041357104928            -1.3248871689784394
H             4.4059180319609625            -0.3438736322559757            -0.3888810826425537
H             2.9559092443294164            -2.1277717157738705             0.8474633038939343
*

$new_job

! r2scan-3c freq pal8

%base "bodipy_freq"

*xyzfile 0 1 bodipy_opt.xyz

$new_job

! wb97x-d4 def2-svp pal8

%base "bodipy_tddft"

%tddft
    nroots 10
    tda false
end

*xyzfile 0 1 bodipy_opt.xyz

! b3lyp def2-svp d3 printmos printbasis pal8

%base "coumarin_sp"

*xyz 0 1
O            -3.5399962964064957            -1.2607347865487857            -0.5833800176104588
C            -2.4179898253760097            -0.6830402677368840            -0.3805683472682589
C            -2.3647397250002800             0.7071505724224043            -0.2339058134091229
C            -1.1627534276354814             1.3606594949479140            -0.0131526161718322
C            -0.0329251459827925             0.5734640427832395             0.0534187818524810
C             1.1778125425684325             1.1917945284168971             0.2717646304159574
C             2.3133007278902542             0.3803832775448699             0.3366336071103874
C             2.2190968737579864            -0.9875874576520798             0.1869200326636593
C             0.9896900690617979            -1.6123008490940423            -0.0344748662654461
C            -0.1316590729040903            -0.8112984593234827            -0.0985648770112009
O            -1.2948062611582829            -1.3868642759301324            -0.3064702893926241
H            -3.2728122789465548             1.2929510384377754            -0.2921329939410728
H            -1.0926700987789542             2.4196772542330538             0.1023828865127863
H             1.2564196813017257             2.2652321558108794             0.3898420053063699
H             3.2959439938670441             0.8454524671208072             0.5101683268335330
H             3.1145886609697739            -1.6091284747524210             0.2399041704353267
H             0.9434995827719478            -2.6858102606799661            -0.1483846200604685
*

$new_job

! r2scan-3c opt pal8

%base "coumarin_opt"

*xyz 0 1
O            -3.5399962964064957            -1.2607347865487857            -0.5833800176104588
C            -2.4179898253760097            -0.6830402677368840            -0.3805683472682589
C            -2.3647397250002800             0.7071505724224043            -0.2339058134091229
C            -1.1627534276354814             1.3606594949479140            -0.0131526161718322
C            -0.0329251459827925             0.5734640427832395             0.0534187818524810
C             1.1778125425684325             1.1917945284168971             0.2717646304159574
C             2.3133007278902542             0.3803832775448699             0.3366336071103874
C             2.2190968737579864            -0.9875874576520798             0.1869200326636593
C             0.9896900690617979            -1.6123008490940423            -0.0344748662654461
C            -0.1316590729040903            -0.8112984593234827            -0.0985648770112009
O            -1.2948062611582829            -1.3868642759301324            -0.3064702893926241
H            -3.2728122789465548             1.2929510384377754            -0.2921329939410728
H            -1.0926700987789542             2.4196772542330538             0.1023828865127863
H             1.2564196813017257             2.2652321558108794             0.3898420053063699
H             3.2959439938670441             0.8454524671208072             0.5101683268335330
H             3.1145886609697739            -1.6091284747524210             0.2399041704353267
H             0.9434995827719478            -2.6858102606799661            -0.1483846200604685
*

$new_job

! r2scan-3c freq pal8

%base "coumarin_freq"

*xyzfile 0 1 coumarin_opt.xyz

$new_job

! wb97x-d4 def2-svp pal8

%base "coumarin_tddft"

%tddft
    nroots 10
    tda false
end

*xyzfile 0 1 coumarin_opt.xyz

! b3lyp def2-svp d3 printmos printbasis pal8

%base "dmab_sp"

*xyz 0 1
C            -2.4332786859800950            -2.0593800316734026             0.2916867822470351
C            -1.4458169358026431            -1.7626040069067745            -0.7427314335250474
N            -1.0249624799374213            -0.3571917409473550            -0.7994349618484012
C            -2.0402279145330473             0.5244369265820832            -1.2757038017892939
C            -1.9458706474096317             1.9780206508562088            -0.9575067379931758
C             0.2771901274321890            -0.0429409390812365            -0.3506649201740890
C             1.0381424346207904            -0.9936603552176694             0.3418514477324185
C             2.3357711289082359            -0.7482906338587043             0.7401631241866492
C             2.9629431664245138             0.4491509018962545             0.4832466851097784
C             2.2388167341225689             1.3947380274653607            -0.1918409050173255
C             0.9256698511780981             1.1506620381241415            -0.5986804128227221
C             4.3231811531165372             0.7630064060472209             0.8763368046316271
O             4.8760577603450033             1.8715107813098735             0.6211820378816949
H            -3.2161003300463196            -2.7517017218344479            -0.0630978026091207
H            -1.9631150385434559            -2.5803794841290673             1.1843265434609227
H            -2.9516634115687714            -1.1828462214285229             0.7268248406862747
H            -0.5689663171128585            -2.3869371882630666            -0.7138342905812995
H            -1.8981715881580734            -1.9440614840959203            -1.7698374057777591
H            -1.9894484444395866             0.4314253794033240            -2.4154621317343419
H            -3.0735037639237954             0.1833431832153977            -1.0599970254724020
H            -1.4352464017999318             2.2119144731265381             0.0103784366492656
H            -1.6590930187863193             2.6144458470619694            -1.8057583591457158
H            -3.0171104504460882             2.3756813304620445            -0.7209390067914059
H             0.6520926556241805            -1.9657924420945463             0.6210851318955182
H             2.9036529987839086            -1.5215648962752504             1.2841478056115310
H             2.7072324065175173             2.3478207772705062            -0.4061643391096048
H             0.4693854239845485             1.9521734005683877            -1.1431269698202713
H             4.9524395874299794             0.0490210224168231             1.4255086442717633
*

$new_job

! r2scan-3c opt pal8

%base "dmab_opt"

*xyz 0 1
C            -2.4332786859800950            -2.0593800316734026             0.2916867822470351
C            -1.4458169358026431            -1.7626040069067745            -0.7427314335250474
N            -1.0249624799374213            -0.3571917409473550            -0.7994349618484012
C            -2.0402279145330473             0.5244369265820832            -1.2757038017892939
C            -1.9458706474096317             1.9780206508562088            -0.9575067379931758
C             0.2771901274321890            -0.0429409390812365            -0.3506649201740890
C             1.0381424346207904            -0.9936603552176694             0.3418514477324185
C             2.3357711289082359            -0.7482906338587043             0.7401631241866492
C             2.9629431664245138             0.4491509018962545             0.4832466851097784
C             2.2388167341225689             1.3947380274653607            -0.1918409050173255
C             0.9256698511780981             1.1506620381241415            -0.5986804128227221
C             4.3231811531165372             0.7630064060472209             0.8763368046316271
O             4.8760577603450033             1.8715107813098735             0.6211820378816949
H            -3.2161003300463196            -2.7517017218344479            -0.0630978026091207
H            -1.9631150385434559            -2.5803794841290673             1.1843265434609227
H            -2.9516634115687714            -1.1828462214285229             0.7268248406862747
H            -0.5689663171128585            -2.3869371882630666            -0.7138342905812995
H            -1.8981715881580734            -1.9440614840959203            -1.7698374057777591
H            -1.9894484444395866             0.4314253794033240            -2.4154621317343419
H            -3.0735037639237954             0.1833431832153977            -1.0599970254724020
H            -1.4352464017999318             2.2119144731265381             0.0103784366492656
H            -1.6590930187863193             2.6144458470619694            -1.8057583591457158
H            -3.0171104504460882             2.3756813304620445            -0.7209390067914059
H             0.6520926556241805            -1.9657924420945463             0.6210851318955182
H             2.9036529987839086            -1.5215648962752504             1.2841478056115310
H             2.7072324065175173             2.3478207772705062            -0.4061643391096048
H             0.4693854239845485             1.9521734005683877            -1.1431269698202713
H             4.9524395874299794             0.0490210224168231             1.4255086442717633
*

$new_job

! r2scan-3c freq pal8

%base "dmab_freq"

*xyzfile 0 1 dmab_opt.xyz

$new_job

! wb97x-d4 def2-svp pal8

%base "dmab_tddft"

%tddft
    nroots 10
    tda false
end

*xyzfile 0 1 dmab_opt.xyz

! b3lyp def2-svp d3 printmos printbasis pal8

%base "hbi_sp"

*xyz 0 1
C            -1.6049049206155217            -1.0154640946999831             0.8360174069490329
C            -2.7732006767856903            -0.3088056643494247             0.7493955179053180
C            -2.8968476536041736             0.7301728805736739            -0.1555755237287310
C            -1.8604811120262390             1.0949255832848879            -1.0015829629070896
C            -0.6725057822707508             0.3694607631491532            -0.9066502257587640
C            -0.5408963002470687            -0.6750567949986247             0.0004079260488797
C             0.7172871374245907            -1.3837858403646439             0.0189069486410403
C             1.9125444033850671            -0.7944741453243634             0.0554607362105781
C             3.2366108504824789            -1.4048410815894308             0.0718568058836584
N             4.1498925794249573            -0.4844962556138544             0.1404153666415446
C             3.5717006678657599             0.8181330089434158             0.1773066069673951
O             4.1730662611433349             1.9256430188510374             0.2427367237776031
N             2.1465900609157140             0.6063469012246476             0.1239173038477178
O            -4.0815717715611717             1.4433483034452392            -0.2373678195809155
H            -1.4974122305365172            -1.8312463563550541             1.5452709616316631
H            -3.6183425725544778            -0.5517058581778774             1.3894125940748792
H            -1.9442308548375162             1.9047231769229258            -1.7182647456412856
H             0.1053175762645770             0.6720665400482415            -1.5834559968953956
H             0.7222004650094944            -2.4724038476991255            -0.0015390783805700
H             3.4580716231225508            -2.4605136208012612             0.0305901991472132
H             1.4926976188045205             1.4099713135430716             0.1468864987537940
H            -4.1955853688039246             2.4080020699873761             0.0758547564124719
*

$new_job

! r2scan-3c opt pal8

%base "hbi_opt"

*xyz 0 1
C            -1.6049049206155217            -1.0154640946999831             0.8360174069490329
C            -2.7732006767856903            -0.3088056643494247             0.7493955179053180
C            -2.8968476536041736             0.7301728805736739            -0.1555755237287310
C            -1.8604811120262390             1.0949255832848879            -1.0015829629070896
C            -0.6725057822707508             0.3694607631491532            -0.9066502257587640
C            -0.5408963002470687            -0.6750567949986247             0.0004079260488797
C             0.7172871374245907            -1.3837858403646439             0.0189069486410403
C             1.9125444033850671            -0.7944741453243634             0.0554607362105781
C             3.2366108504824789            -1.4048410815894308             0.0718568058836584
N             4.1498925794249573            -0.4844962556138544             0.1404153666415446
C             3.5717006678657599             0.8181330089434158             0.1773066069673951
O             4.1730662611433349             1.9256430188510374             0.2427367237776031
N             2.1465900609157140             0.6063469012246476             0.1239173038477178
O            -4.0815717715611717             1.4433483034452392            -0.2373678195809155
H            -1.4974122305365172            -1.8312463563550541             1.5452709616316631
H            -3.6183425725544778            -0.5517058581778774             1.3894125940748792
H            -1.9442308548375162             1.9047231769229258            -1.7182647456412856
H             0.1053175762645770             0.6720665400482415            -1.5834559968953956
H             0.7222004650094944            -2.4724038476991255            -0.0015390783805700
H             3.4580716231225508            -2.4605136208012612             0.0305901991472132
H             1.4926976188045205             1.4099713135430716             0.1468864987537940
H            -4.1955853688039246             2.4080020699873761             0.0758547564124719
*

$new_job

! r2scan-3c freq pal8

%base "hbi_freq"

*xyzfile 0 1 hbi_opt.xyz

$new_job

! wb97x-d4 def2-svp pal8

%base "hbi_tddft"

%tddft
    nroots 10
    tda false
end

*xyzfile 0 1 hbi_opt.xyz

! b3lyp def2-svp d3 printmos printbasis pal8

%base "hina_sp"

*xyz 0 1
C             0.0181188166533183            -1.4325005263227151            -0.0608003953136745
C            -1.3653100189068150            -1.4893504764259149            -0.0925606001981018
N            -2.1259715759710462            -0.3599189129386426            -0.1104146602131276
C            -1.5861808232171912             0.8724358791056219            -0.0984349772413184
C            -0.2092683861047478             0.9554847893394508            -0.0668320263755875
C             0.5827180158365037            -0.1735682393703750            -0.0482554072130159
C             2.0430687878888549            -0.0707759598958056            -0.0147648219369779
O             2.7751586058281399            -1.0935646215945773             0.0023899833529351
O             0.3667359486850569             2.2200977395810058            -0.0540349608915319
H             0.5903561414659404            -2.3439218011260721            -0.0473611785341646
H            -1.8941063650433960            -2.4387789341198998            -0.1043515888535468
H            -2.2425113758080810             1.7286860716875940            -0.1138155182624448
H             2.5497688425096894             0.8819976644363279            -0.0034512650419078
H             0.4974233861837873             2.7436773276440172             0.8126874167224720
*

$new_job

! r2scan-3c opt pal8

%base "hina_opt"

*xyz 0 1
C             0.0181188166533183            -1.4325005263227151            -0.0608003953136745
C            -1.3653100189068150            -1.4893504764259149            -0.0925606001981018
N            -2.1259715759710462            -0.3599189129386426            -0.1104146602131276
C            -1.5861808232171912             0.8724358791056219            -0.0984349772413184
C            -0.2092683861047478             0.9554847893394508            -0.0668320263755875
C             0.5827180158365037            -0.1735682393703750            -0.0482554072130159
C             2.0430687878888549            -0.0707759598958056            -0.0147648219369779
O             2.7751586058281399            -1.0935646215945773             0.0023899833529351
O             0.3667359486850569             2.2200977395810058            -0.0540349608915319
H             0.5903561414659404            -2.3439218011260721            -0.0473611785341646
H            -1.8941063650433960            -2.4387789341198998            -0.1043515888535468
H            -2.2425113758080810             1.7286860716875940            -0.1138155182624448
H             2.5497688425096894             0.8819976644363279            -0.0034512650419078
H             0.4974233861837873             2.7436773276440172             0.8126874167224720
*

$new_job

! r2scan-3c freq pal8

%base "hina_freq"

*xyzfile 0 1 hina_opt.xyz

$new_job

! wb97x-d4 def2-svp pal8

%base "hina_tddft"

%tddft
    nroots 10
    tda false
end

*xyzfile 0 1 hina_opt.xyz

! b3lyp def2-svp d3 printmos printbasis pal8

%base "tryptophan_sp"

*xyz 0 1
C             0.5683850743823796            -0.1746102718258504            -2.2209944509964710
N             1.8790093515149320            -0.4358247428372111            -2.0029991831848677
C             2.2044608609059848            -0.1415323923269559            -0.7317438992142040
C             3.4121185225600703            -0.2353232979789305            -0.0736507569687122
C             3.4869135533544382             0.1547039156638928             1.2635304494459669
C             2.3296590720370642             0.6155088508038625             1.8478842674266021
C             1.1303328301018132             0.7033836994212407             1.1789351865194375
C             1.0486963890873402             0.3196993511171826            -0.1406908895220420
C             0.0048924441031645             0.3148822401467302            -1.0343843216452269
C            -1.4032754529919449             0.6749181129675289            -0.9172627225760553
C            -2.3260973673029097            -0.3662460178933072            -0.3429731201027526
N            -3.6458923943638610             0.2642208339502850            -0.3339104030763491
C            -2.0162833642084825            -0.7712770711189231             1.0326689361315224
O            -1.0570345876639511            -1.5451266272308006             1.3458832631126272
O            -2.7808686048183167            -0.3152606918481852             2.1085548145114008
H             0.0375071988339140            -0.3227413517257599            -3.1707167846907991
H             2.5704427510105829            -0.8176929090610568            -2.7117423962632663
H             4.2954278735942761            -0.6100877426074819            -0.5925955493491788
H             4.4344436293701364             0.0713529868034515             1.7454782210263271
H             2.3949171259850379             0.9166575602312911             2.8844623818769111
H             0.2127300155197024             1.0673726303707798             1.6359030160497845
H            -1.5547869207012115             1.5813423354250429            -0.2462915950519773
H            -1.8267803905375792             1.0471722610367911            -1.9035351615037135
H            -2.3414098552094247            -1.2964895520610438            -0.9568436175952847
H            -4.1852660078281154             0.0362099801217896             0.5298184989299853
H            -4.1432150096139111             0.1205819809745380            -1.2196471600525129
H            -2.7290267371211909            -0.7453585463919630             3.0268629767631383
*

$new_job

! r2scan-3c opt pal8

%base "tryptophan_opt"

*xyz 0 1
C             0.5683850743823796            -0.1746102718258504            -2.2209944509964710
N             1.8790093515149320            -0.4358247428372111            -2.0029991831848677
C             2.2044608609059848            -0.1415323923269559            -0.7317438992142040
C             3.4121185225600703            -0.2353232979789305            -0.0736507569687122
C             3.4869135533544382             0.1547039156638928             1.2635304494459669
C             2.3296590720370642             0.6155088508038625             1.8478842674266021
C             1.1303328301018132             0.7033836994212407             1.1789351865194375
C             1.0486963890873402             0.3196993511171826            -0.1406908895220420
C             0.0048924441031645             0.3148822401467302            -1.0343843216452269
C            -1.4032754529919449             0.6749181129675289            -0.9172627225760553
C            -2.3260973673029097            -0.3662460178933072            -0.3429731201027526
N            -3.6458923943638610             0.2642208339502850            -0.3339104030763491
C            -2.0162833642084825            -0.7712770711189231             1.0326689361315224
O            -1.0570345876639511            -1.5451266272308006             1.3458832631126272
O            -2.7808686048183167            -0.3152606918481852             2.1085548145114008
H             0.0375071988339140            -0.3227413517257599            -3.1707167846907991
H             2.5704427510105829            -0.8176929090610568            -2.7117423962632663
H             4.2954278735942761            -0.6100877426074819            -0.5925955493491788
H             4.4344436293701364             0.0713529868034515             1.7454782210263271
H             2.3949171259850379             0.9166575602312911             2.8844623818769111
H             0.2127300155197024             1.0673726303707798             1.6359030160497845
H            -1.5547869207012115             1.5813423354250429            -0.2462915950519773
H            -1.8267803905375792             1.0471722610367911            -1.9035351615037135
H            -2.3414098552094247            -1.2964895520610438            -0.9568436175952847
H            -4.1852660078281154             0.0362099801217896             0.5298184989299853
H            -4.1432150096139111             0.1205819809745380            -1.2196471600525129
H            -2.7290267371211909            -0.7453585463919630             3.0268629767631383
*

$new_job

! r2scan-3c freq pal8

%base "tryptophan_freq"

*xyzfile 0 1 tryptophan_opt.xyz

$new_job

! wb97x-d4 def2-svp pal8

%base "tryptophan_tddft"

%tddft
    nroots 10
    tda false
end

*xyzfile 0 1 tryptophan_opt.xyz