! b3lyp def2-svp d3 printmos printbasis pal8

%base "tryptophan_sp"

*xyz 0 1
C             0.5683850743823796            -0.1746102718258504            -2.2209944509964710
N             1.8790093515149320            -0.4358247428372111            -2.0029991831848677
C             2.2044608609059848            -0.1415323923269559            -0.7317438992142040
C             3.4121185225600703            -0.2353232979789305            -0.0736507569687122
C             3.4869135533544382             0.1547039156638928             1.2635304494459669
C             2.3296590720370642             0.6155088508038625             1.8478842674266021
C             1.1303328301018132             0.7033836994212407             1.1789351865194375
C             1.0486963890873402             0.3196993511171826            -0.1406908895220420
C             0.0048924441031645             0.3148822401467302            -1.0343843216452269
C            -1.4032754529919449             0.6749181129675289            -0.9172627225760553
C            -2.3260973673029097            -0.3662460178933072            -0.3429731201027526
N            -3.6458923943638610             0.2642208339502850            -0.3339104030763491
C            -2.0162833642084825            -0.7712770711189231             1.0326689361315224
O            -1.0570345876639511            -1.5451266272308006             1.3458832631126272
O            -2.7808686048183167            -0.3152606918481852             2.1085548145114008
H             0.0375071988339140            -0.3227413517257599            -3.1707167846907991
H             2.5704427510105829            -0.8176929090610568            -2.7117423962632663
H             4.2954278735942761            -0.6100877426074819            -0.5925955493491788
H             4.4344436293701364             0.0713529868034515             1.7454782210263271
H             2.3949171259850379             0.9166575602312911             2.8844623818769111
H             0.2127300155197024             1.0673726303707798             1.6359030160497845
H            -1.5547869207012115             1.5813423354250429            -0.2462915950519773
H            -1.8267803905375792             1.0471722610367911            -1.9035351615037135
H            -2.3414098552094247            -1.2964895520610438            -0.9568436175952847
H            -4.1852660078281154             0.0362099801217896             0.5298184989299853
H            -4.1432150096139111             0.1205819809745380            -1.2196471600525129
H            -2.7290267371211909            -0.7453585463919630             3.0268629767631383
*

$new_job

! r2scan-3c opt pal8

%base "tryptophan_opt"

*xyz 0 1
C             0.5683850743823796            -0.1746102718258504            -2.2209944509964710
N             1.8790093515149320            -0.4358247428372111            -2.0029991831848677
C             2.2044608609059848            -0.1415323923269559            -0.7317438992142040
C             3.4121185225600703            -0.2353232979789305            -0.0736507569687122
C             3.4869135533544382             0.1547039156638928             1.2635304494459669
C             2.3296590720370642             0.6155088508038625             1.8478842674266021
C             1.1303328301018132             0.7033836994212407             1.1789351865194375
C             1.0486963890873402             0.3196993511171826            -0.1406908895220420
C             0.0048924441031645             0.3148822401467302            -1.0343843216452269
C            -1.4032754529919449             0.6749181129675289            -0.9172627225760553
C            -2.3260973673029097            -0.3662460178933072            -0.3429731201027526
N            -3.6458923943638610             0.2642208339502850            -0.3339104030763491
C            -2.0162833642084825            -0.7712770711189231             1.0326689361315224
O            -1.0570345876639511            -1.5451266272308006             1.3458832631126272
O            -2.7808686048183167            -0.3152606918481852             2.1085548145114008
H             0.0375071988339140            -0.3227413517257599            -3.1707167846907991
H             2.5704427510105829            -0.8176929090610568            -2.7117423962632663
H             4.2954278735942761            -0.6100877426074819            -0.5925955493491788
H             4.4344436293701364             0.0713529868034515             1.7454782210263271
H             2.3949171259850379             0.9166575602312911             2.8844623818769111
H             0.2127300155197024             1.0673726303707798             1.6359030160497845
H            -1.5547869207012115             1.5813423354250429            -0.2462915950519773
H            -1.8267803905375792             1.0471722610367911            -1.9035351615037135
H            -2.3414098552094247            -1.2964895520610438            -0.9568436175952847
H            -4.1852660078281154             0.0362099801217896             0.5298184989299853
H            -4.1432150096139111             0.1205819809745380            -1.2196471600525129
H            -2.7290267371211909            -0.7453585463919630             3.0268629767631383
*

$new_job

! r2scan-3c freq pal8

%base "tryptophan_freq"

*xyzfile 0 1 "tryptophan_opt.xyz"

$new_job

! wb97x-d4 def2-svp pal8

%base "tryptophan_tddft"

%tddft
    nroots 10
    tda false
end

*xyzfile 0 1 "tryptophan_opt.xyz"
